p cnf 10 40
-2 4 -10 0
8 -9 5 0
10 -9 6 0
-1 7 9 0
7 10 -5 0
-2 3 -7 0
3 -9 4 0
-5 6 10 0
2 -3 -5 0
-3 -7 -5 0
-7 8 -6 0
10 -1 -7 0
3 10 4 0
3 -7 1 0
3 4 -6 0
1 -4 5 0
3 4 -5 0
-4 -8 3 0
-7 -6 -9 0
-5 -9 -4 0
-5 3 -9 0
-1 -4 -2 0
10 -8 -2 0
4 5 2 0
-4 8 3 0
9 1 -6 0
-8 -6 -9 0
1 6 9 0
8 1 9 0
5 -10 8 0
10 -2 4 0
7 -1 10 0
-1 5 7 0
9 5 4 0
4 -7 -9 0
-9 -7 10 0
1 10 -3 0
10 1 7 0
-2 -4 1 0
-4 6 2 0
